NAME : in_house_9_0
TYPE : TSP
DIMENSION : 9
EDGE_WEIGHT_TYPE : EXPLICIT
EDGE_WEIGHT_FORMAT : UPPER_ROW
COMMENT : INVERSION_SHIFT=8
EDGE_WEIGHT_SECTION
47
28
46
74
29
23
13
62
52
48
39
59
38
79
30
71
65
62
34
14
79
62
3
43
52
4
64
15
39
20
5
33
4
20
58
58
